25
    1    19    19
    2    12    12
    3    16    16
    4     4     4
    5    18    18
    6    14    14
    7    11    11
    8    18    18
    9     8     8
   10     3     3
   11     1     1
   12    15    15
   13     9     9
   14    19    19
   15    19    19
   16     9     9
   17     5     5
   18    12    12
   19     6     6
   20     4     4
   21    15    15
   22     5     5
   23    19    19
   24    17    17
   25     8     8
117
